p ocr 791 718 1581
1 948
1 1374
2 948
3 948
4 948
5 948
6 948
7 948
8 948
9 948
10 948
11 948
12 948
13 948
14 948
15 948
16 948
17 948
18 948
19 948
20 948
21 948
22 948
23 948
24 948
25 948
26 948
27 948
28 948
29 948
30 948
31 948
32 948
33 948
34 948
35 948
36 948
37 948
38 948
39 948
40 948
41 948
42 948
43 948
44 948
45 948
46 948
47 948
48 948
49 948
50 948
51 948
52 948
53 948
54 948
55 948
56 948
57 948
58 948
59 948
60 948
61 948
62 948
63 948
64 948
65 948
66 948
67 948
68 948
69 948
70 948
71 948
72 948
73 948
74 948
75 948
76 948
77 948
78 948
79 948
80 948
81 948
82 948
83 948
84 948
85 948
86 948
87 948
88 948
89 948
90 948
91 948
92 948
93 948
94 948
95 948
96 948
97 948
98 948
99 948
100 948
101 948
102 948
103 948
104 948
105 948
106 948
107 948
108 948
109 948
110 948
111 948
112 948
113 948
114 948
115 948
116 948
117 948
118 948
119 948
120 948
121 948
122 948
123 948
124 948
125 948
126 948
127 948
128 948
129 948
130 948
131 948
132 948
133 948
134 948
135 948
136 948
137 948
138 948
139 948
140 948
141 948
142 948
143 948
144 948
145 948
146 948
147 948
148 948
149 948
150 948
151 948
152 948
153 948
154 948
155 948
156 948
157 948
158 948
159 948
160 948
161 948
162 948
163 948
164 948
165 948
166 948
167 948
168 948
169 948
170 948
171 948
172 948
173 948
174 948
175 948
176 948
177 948
178 948
179 948
180 948
181 948
182 948
183 948
184 948
185 948
186 948
187 948
188 948
189 948
190 948
191 948
192 948
193 948
194 948
195 948
196 948
197 948
198 948
199 948
200 948
201 948
202 948
203 948
204 948
205 948
206 948
207 948
208 948
209 948
210 948
211 948
212 948
213 948
214 948
215 948
216 948
217 948
218 948
219 948
220 948
221 948
222 948
223 948
224 948
225 948
226 948
227 948
228 948
229 948
230 948
231 948
232 948
233 948
234 948
235 948
236 948
237 948
238 948
239 948
240 948
241 948
242 948
243 948
244 948
245 948
246 948
247 948
248 948
249 948
250 948
251 948
252 948
253 948
254 948
255 948
256 948
257 948
258 948
259 948
260 948
261 948
262 948
263 948
264 948
265 948
266 948
267 948
268 948
269 948
270 948
271 948
272 948
273 948
274 948
275 948
276 948
277 792
277 794
277 796
277 800
277 813
277 815
277 817
277 819
277 822
277 823
277 824
277 828
277 831
277 832
277 833
277 837
277 839
277 840
277 842
277 843
277 846
277 855
277 857
277 859
277 860
277 861
277 863
277 868
277 872
277 875
277 877
277 880
277 881
277 888
277 889
277 891
277 897
277 898
277 900
277 902
277 904
277 905
277 910
277 911
277 912
277 915
277 916
277 918
277 922
277 926
277 928
277 930
277 931
277 932
277 933
277 945
277 947
277 948
277 950
277 952
277 961
277 962
277 963
277 965
277 971
277 972
277 974
277 975
277 978
277 979
277 986
277 991
277 996
277 998
277 999
277 1000
277 1002
277 1005
277 1008
277 1009
277 1010
277 1011
277 1012
277 1016
277 1022
277 1024
277 1025
277 1027
277 1028
277 1030
277 1035
277 1037
277 1038
277 1041
277 1042
277 1043
277 1046
277 1049
277 1051
277 1052
277 1064
277 1066
277 1069
277 1071
277 1072
277 1074
277 1079
277 1080
277 1081
277 1082
277 1083
277 1085
277 1086
277 1087
277 1092
277 1093
277 1097
277 1102
277 1103
277 1104
277 1105
277 1108
277 1112
277 1113
277 1120
277 1123
277 1124
277 1129
277 1134
277 1135
277 1139
277 1142
277 1143
277 1144
277 1145
277 1146
277 1148
277 1149
277 1151
277 1153
277 1159
277 1165
277 1169
277 1170
277 1174
277 1175
277 1178
277 1179
277 1187
277 1188
277 1189
277 1191
277 1193
277 1196
277 1198
277 1199
277 1200
277 1201
277 1203
277 1205
277 1207
277 1208
277 1211
277 1212
277 1213
277 1217
277 1225
277 1229
277 1231
277 1234
277 1236
277 1237
277 1240
277 1244
277 1248
277 1252
277 1254
277 1256
277 1258
277 1259
277 1262
277 1270
277 1272
277 1274
277 1278
277 1279
277 1281
277 1284
277 1287
277 1288
277 1289
277 1291
277 1292
277 1293
277 1295
277 1296
277 1299
277 1302
277 1303
277 1306
277 1310
277 1311
277 1315
277 1316
277 1317
277 1318
277 1321
277 1324
277 1332
277 1336
277 1340
277 1344
277 1351
277 1352
277 1354
277 1357
277 1358
277 1361
277 1362
277 1366
277 1367
277 1369
277 1377
277 1378
277 1379
277 1381
277 1382
277 1384
277 1385
277 1388
277 1390
277 1391
277 1392
277 1393
277 1396
277 1398
277 1400
277 1401
277 1402
277 1404
277 1405
277 1412
277 1413
277 1414
277 1416
277 1419
277 1420
277 1424
277 1427
277 1428
277 1432
277 1437
277 1438
277 1439
277 1440
277 1441
277 1443
277 1444
277 1445
277 1449
277 1455
277 1459
277 1461
277 1469
277 1470
277 1472
277 1473
277 1475
277 1481
277 1482
277 1483
277 1485
277 1487
277 1493
277 1501
277 1504
277 1507
278 1374
279 1374
280 1374
281 1374
282 1374
283 1374
284 1374
285 1374
286 1374
287 1374
288 1374
289 1374
290 1374
291 1374
292 1374
293 1374
294 1374
295 1374
296 1374
297 1374
298 1374
299 1374
300 883
300 1301
300 1374
300 1431
301 883
301 1301
301 1374
301 1431
302 883
302 1301
302 1374
302 1431
303 883
303 1301
303 1374
303 1431
304 883
304 1301
304 1374
304 1431
305 883
305 1301
305 1374
305 1431
306 883
306 1301
306 1374
306 1431
307 848
307 883
307 1301
307 1374
307 1431
308 1431
309 1431
310 1431
311 1431
312 1431
313 1431
314 1431
315 1431
316 1431
317 1431
318 1431
319 1431
320 1431
321 1431
322 1431
323 1431
324 1431
325 1431
326 1431
327 1431
328 1431
329 1431
330 1431
331 1431
332 1431
333 1431
334 1431
335 1431
336 1431
337 1431
338 1431
339 1431
340 1431
341 1431
342 1431
343 1431
344 1431
345 1431
346 1431
347 1431
348 1431
349 1431
350 1431
351 1431
352 1431
353 1431
354 1431
355 1431
356 1431
357 1431
358 1431
359 1431
360 1431
361 1431
362 1431
363 1431
364 1431
365 1431
366 1431
367 1431
368 1431
369 1431
370 1431
371 1431
372 1431
373 1431
374 1431
375 1431
376 1431
377 1431
378 1431
379 1431
380 1431
381 1431
382 1431
383 1431
384 1431
385 1431
386 1431
387 1431
388 1431
389 1431
390 1431
391 1431
392 1431
393 1431
394 1431
395 1431
396 1431
397 1431
398 1431
399 1431
400 1431
401 1431
402 1431
403 1431
404 1431
405 1431
406 1431
407 1431
408 1431
409 1431
410 1431
411 1431
412 1431
413 1431
414 1431
415 1431
416 1431
417 1431
418 1431
419 1431
420 1431
421 1431
422 1431
423 1431
424 1431
425 1431
426 1431
427 1431
428 1431
429 1431
430 1431
431 1431
432 1431
433 1431
434 1431
435 1431
436 1431
437 1431
438 1431
439 1431
440 1431
441 1431
442 1431
443 1431
444 1431
445 1431
446 1431
447 1431
448 1431
449 1431
450 1431
451 1431
452 1431
453 1431
454 1431
455 1431
456 1431
457 1431
458 1431
459 1431
460 1431
461 1431
462 1431
463 1431
464 1431
465 1431
466 1431
467 1431
468 1431
469 1431
470 1431
471 1431
472 1431
473 1431
474 1431
475 1431
476 1431
477 1431
478 1431
479 1431
480 1431
481 1431
482 1431
483 1431
484 1431
485 1431
486 1431
487 1431
488 1431
489 1431
490 1431
491 1431
492 1431
493 1431
494 1431
495 1431
496 1431
497 793
497 801
497 802
497 805
497 807
497 810
497 826
497 835
497 849
497 862
497 865
497 874
497 876
497 879
497 893
497 895
497 899
497 907
497 914
497 917
497 919
497 923
497 925
497 927
497 935
497 937
497 941
497 942
497 944
497 946
497 951
497 955
497 957
497 958
497 959
497 966
497 968
497 970
497 973
497 977
497 981
497 982
497 983
497 984
497 987
497 988
497 993
497 994
497 995
497 997
497 1003
497 1006
497 1015
497 1017
497 1018
497 1019
497 1020
497 1023
497 1029
497 1032
497 1036
497 1039
497 1044
497 1045
497 1047
497 1050
497 1053
497 1054
497 1056
497 1059
497 1062
497 1065
497 1067
497 1068
497 1073
497 1076
497 1077
497 1084
497 1088
497 1089
497 1091
497 1095
497 1096
497 1099
497 1100
497 1106
497 1110
497 1111
497 1115
497 1119
497 1122
497 1131
497 1133
497 1138
497 1140
497 1141
497 1147
497 1152
497 1154
497 1156
497 1158
497 1160
497 1162
497 1167
497 1172
497 1173
497 1183
497 1190
497 1192
497 1195
497 1197
497 1214
497 1221
497 1222
497 1224
497 1226
497 1228
497 1232
497 1235
497 1242
497 1245
497 1246
497 1247
497 1255
497 1261
497 1264
497 1265
497 1266
497 1267
497 1282
497 1286
497 1294
497 1298
497 1300
497 1307
497 1308
497 1319
497 1320
497 1323
497 1325
497 1327
497 1328
497 1330
497 1331
497 1333
497 1334
497 1338
497 1339
497 1345
497 1349
497 1353
497 1355
497 1364
497 1368
497 1370
497 1371
497 1375
497 1376
497 1387
497 1389
497 1394
497 1406
497 1411
497 1417
497 1422
497 1423
497 1426
497 1429
497 1431
497 1436
497 1442
497 1446
497 1450
497 1452
497 1453
497 1454
497 1462
497 1463
497 1465
497 1467
497 1468
497 1474
497 1480
497 1484
497 1489
497 1490
497 1491
497 1494
497 1495
497 1498
497 1506
498 848
499 848
500 848
501 848
502 848
503 848
504 848
505 848
506 848
507 848
508 848
509 848
510 848
511 848
512 848
513 848
514 848
515 848
516 848
516 1342
516 1346
516 1488
516 1499
517 848
517 1342
517 1346
517 1488
517 1499
518 848
518 1342
518 1346
518 1476
518 1488
518 1499
519 1346
520 1346
521 1346
522 1346
523 1346
524 1346
525 1346
526 1346
527 1346
528 1346
529 1346
530 1346
531 1346
532 1346
533 1346
534 1346
535 1346
536 1346
537 1346
538 1346
539 1346
540 1346
541 1346
542 1346
543 1346
544 1346
545 1346
546 1346
547 1346
548 1346
549 1346
550 1346
551 1346
552 1346
553 1346
554 1346
555 1346
556 1346
557 1346
558 1346
559 1346
560 1346
561 1346
562 1346
563 1346
564 1346
565 1346
566 1346
567 1346
568 1346
569 1346
570 1346
571 1346
572 1346
573 1346
574 1346
575 1346
576 1346
577 1346
578 1346
579 1346
580 1346
581 1346
582 1346
583 1346
584 1346
585 1346
586 1346
587 1346
588 1346
589 1346
590 1346
591 1346
592 1346
593 1346
594 1346
595 1346
596 1346
597 1346
598 1346
599 1346
600 1346
601 1346
602 1346
603 1346
604 1346
605 1346
606 1346
607 1346
608 1346
609 1346
610 1346
611 1346
612 1346
613 1346
614 1346
615 1346
616 1346
617 1346
618 1346
619 1346
620 1346
621 1346
622 1346
623 1346
624 1346
625 1346
626 1346
627 1346
628 1346
629 1346
630 1346
631 1346
632 1346
633 1346
634 1346
635 1346
636 1346
637 1346
638 808
638 809
638 811
638 812
638 816
638 825
638 827
638 829
638 836
638 844
638 845
638 851
638 854
638 856
638 864
638 866
638 867
638 869
638 870
638 882
638 884
638 885
638 890
638 892
638 901
638 903
638 906
638 909
638 924
638 929
638 936
638 939
638 940
638 953
638 956
638 960
638 964
638 967
638 976
638 1021
638 1026
638 1034
638 1040
638 1058
638 1061
638 1070
638 1078
638 1090
638 1098
638 1107
638 1109
638 1114
638 1117
638 1118
638 1125
638 1130
638 1136
638 1155
638 1161
638 1164
638 1166
638 1177
638 1181
638 1182
638 1185
638 1204
638 1206
638 1209
638 1210
638 1215
638 1216
638 1219
638 1220
638 1227
638 1238
638 1250
638 1257
638 1260
638 1271
638 1273
638 1276
638 1280
638 1283
638 1285
638 1304
638 1309
638 1312
638 1313
638 1314
638 1322
638 1326
638 1329
638 1335
638 1337
638 1341
638 1343
638 1346
638 1348
638 1350
638 1356
638 1363
638 1372
638 1373
638 1380
638 1383
638 1409
638 1410
638 1421
638 1434
638 1435
638 1451
638 1456
638 1457
638 1458
638 1460
638 1471
638 1492
638 1502
638 1505
638 1508
638 1509
639 1476
640 1476
641 1476
642 1476
643 1476
644 1476
645 1476
646 1476
647 1476
648 1476
649 1476
650 1476
651 1476
652 1476
653 830
653 853
653 871
653 1004
653 1126
653 1251
653 1476
653 1496
654 830
654 853
654 871
654 1004
654 1126
654 1251
654 1476
654 1496
655 830
655 853
655 871
655 1004
655 1126
655 1251
655 1476
655 1496
656 830
656 853
656 871
656 1004
656 1126
656 1251
656 1476
656 1496
657 830
657 853
657 871
657 1004
657 1126
657 1223
657 1251
657 1476
657 1496
658 871
659 871
660 871
661 871
662 871
663 871
664 871
665 871
666 871
667 871
668 871
669 871
670 871
671 871
672 871
673 871
674 871
675 871
676 871
677 871
678 871
679 871
680 871
681 871
682 871
683 871
684 871
685 871
686 871
687 871
688 871
689 871
690 871
691 871
692 871
693 871
694 871
695 871
696 871
697 871
698 871
699 871
700 871
701 871
702 871
703 871
704 871
705 871
706 871
707 871
708 871
709 871
710 871
711 871
712 871
713 871
714 871
715 871
716 871
717 871
718 871
719 871
720 871
721 871
722 871
723 797
723 798
723 803
723 806
723 814
723 818
723 820
723 821
723 838
723 841
723 847
723 858
723 871
723 878
723 887
723 894
723 896
723 913
723 920
723 921
723 954
723 980
723 989
723 992
723 1013
723 1014
723 1033
723 1048
723 1055
723 1063
723 1101
723 1116
723 1127
723 1128
723 1132
723 1137
723 1150
723 1168
723 1171
723 1176
723 1180
723 1186
723 1194
723 1218
723 1239
723 1241
723 1249
723 1253
723 1269
723 1275
723 1277
723 1290
723 1360
723 1365
723 1386
723 1395
723 1397
723 1399
723 1403
723 1430
723 1433
723 1447
723 1448
723 1464
723 1478
723 1486
723 1497
724 1223
725 1223
726 1223
727 1223
728 1223
729 1223
730 1223
731 1223
732 1223
733 1223
734 934
734 1001
734 1163
734 1223
734 1297
735 934
735 1001
735 1163
735 1223
735 1297
736 934
736 1001
736 1163
736 1223
736 1297
737 934
737 1001
737 1163
737 1223
737 1297
738 934
738 985
738 1001
738 1163
738 1223
738 1297
739 934
740 934
741 934
742 934
743 934
744 934
745 934
746 934
747 934
748 934
749 934
750 934
751 934
752 934
753 934
754 934
755 934
756 934
757 934
758 934
759 934
760 934
761 934
762 934
763 934
764 934
765 934
766 850
766 852
766 873
766 886
766 908
766 934
766 938
766 949
766 969
766 990
766 1031
766 1057
766 1060
766 1075
766 1094
766 1157
766 1230
766 1233
766 1263
766 1268
766 1305
766 1347
766 1359
766 1407
766 1415
766 1425
766 1466
766 1477
766 1503
767 985
768 985
769 985
770 985
771 985
772 985
773 985
773 1243
774 985
775 985
776 985
777 985
778 985
779 799
779 804
779 834
779 985
779 1007
779 1121
779 1184
780 1243
781 1243
782 1243
782 1500
783 1243
784 1243
785 1243
786 1243
787 1243
788 795
788 943
788 1202
788 1243
788 1408
788 1418
788 1479
789 1500
790 1500
791 1500